solution status: optimal solution found
objective value:                     137150.987148966
d11(0,0)                                            1 	(obj:0)
d11(1,1)                                            1 	(obj:0)
d11(1,2)                                            1 	(obj:0)
d11(2,4)                                            1 	(obj:0)
d11(2,5)                                            1 	(obj:0)
d11(2,7)                                            1 	(obj:0)
d11(2,8)                                            1 	(obj:0)
d11(2,10)                                           1 	(obj:0)
d11(2,11)                                           1 	(obj:0)
d11(3,13)                                           1 	(obj:0)
d11(3,14)                                           1 	(obj:0)
d11(3,16)                                           1 	(obj:0)
d11(3,17)                                           1 	(obj:0)
d11(3,19)                                           1 	(obj:0)
d11(3,20)                                           1 	(obj:0)
d11(3,22)                                           1 	(obj:0)
d11(3,23)                                           1 	(obj:0)
d11(3,25)                                           1 	(obj:0)
d11(3,26)                                           1 	(obj:0)
d11(3,28)                                           1 	(obj:0)
d11(3,29)                                           1 	(obj:0)
d11(3,31)                                           1 	(obj:0)
d11(3,32)                                           1 	(obj:0)
d11(3,34)                                           1 	(obj:0)
d11(3,35)                                           1 	(obj:0)
d11(3,37)                                           1 	(obj:0)
d11(3,38)                                           1 	(obj:0)
d11(4,40)                                           1 	(obj:0)
d11(4,41)                                           1 	(obj:0)
d11(4,43)                                           1 	(obj:0)
d11(4,44)                                           1 	(obj:0)
d11(4,46)                                           1 	(obj:0)
d11(4,47)                                           1 	(obj:0)
d11(4,49)                                           1 	(obj:0)
d11(4,50)                                           1 	(obj:0)
d11(4,52)                                           1 	(obj:0)
d11(4,53)                                           1 	(obj:0)
d11(4,55)                                           1 	(obj:0)
d11(4,56)                                           1 	(obj:0)
d11(4,58)                                           1 	(obj:0)
d11(4,59)                                           1 	(obj:0)
d11(4,61)                                           1 	(obj:0)
d11(4,62)                                           1 	(obj:0)
d11(4,64)                                           1 	(obj:0)
d11(4,65)                                           1 	(obj:0)
d11(4,67)                                           1 	(obj:0)
d11(4,68)                                           1 	(obj:0)
d11(4,70)                                           1 	(obj:0)
d11(4,71)                                           1 	(obj:0)
d11(4,73)                                           1 	(obj:0)
d11(4,74)                                           1 	(obj:0)
d11(4,76)                                           1 	(obj:0)
d11(4,77)                                           1 	(obj:0)
d11(4,79)                                           1 	(obj:0)
d11(4,80)                                           1 	(obj:0)
d11(4,82)                                           1 	(obj:0)
d11(4,83)                                           1 	(obj:0)
d11(4,85)                                           1 	(obj:0)
d11(4,86)                                           1 	(obj:0)
d11(4,88)                                           1 	(obj:0)
d11(4,89)                                           1 	(obj:0)
d11(4,91)                                           1 	(obj:0)
d11(4,92)                                           1 	(obj:0)
d11(4,94)                                           1 	(obj:0)
d11(4,95)                                           1 	(obj:0)
d11(4,97)                                           1 	(obj:0)
d11(4,98)                                           1 	(obj:0)
d11(4,100)                                          1 	(obj:0)
d11(4,101)                                          1 	(obj:0)
d11(4,103)                                          1 	(obj:0)
d11(4,104)                                          1 	(obj:0)
d11(4,106)                                          1 	(obj:0)
d11(4,107)                                          1 	(obj:0)
d11(4,109)                                          1 	(obj:0)
d11(4,110)                                          1 	(obj:0)
d11(4,112)                                          1 	(obj:0)
d11(4,113)                                          1 	(obj:0)
d11(4,115)                                          1 	(obj:0)
d11(4,116)                                          1 	(obj:0)
d11(4,118)                                          1 	(obj:0)
d11(4,119)                                          1 	(obj:0)
d12(1,3)                                            1 	(obj:0)
d12(2,6)                                            1 	(obj:0)
d12(2,9)                                            1 	(obj:0)
d12(2,12)                                           1 	(obj:0)
d12(3,15)                                           1 	(obj:0)
d12(3,18)                                           1 	(obj:0)
d12(3,21)                                           1 	(obj:0)
d12(3,24)                                           1 	(obj:0)
d12(3,27)                                           1 	(obj:0)
d12(3,30)                                           1 	(obj:0)
d12(3,33)                                           1 	(obj:0)
d12(3,36)                                           1 	(obj:0)
d12(3,39)                                           1 	(obj:0)
d12(4,42)                                           1 	(obj:0)
d12(4,45)                                           1 	(obj:0)
d12(4,48)                                           1 	(obj:0)
d12(4,51)                                           1 	(obj:0)
d12(4,54)                                           1 	(obj:0)
d12(4,57)                                           1 	(obj:0)
d12(4,60)                                           1 	(obj:0)
d12(4,63)                                           1 	(obj:0)
d12(4,66)                                           1 	(obj:0)
d12(4,69)                                           1 	(obj:0)
d12(4,72)                                           1 	(obj:0)
d12(4,75)                                           1 	(obj:0)
d12(4,78)                                           1 	(obj:0)
d12(4,81)                                           1 	(obj:0)
d12(4,84)                                           1 	(obj:0)
d12(4,87)                                           1 	(obj:0)
d12(4,90)                                           1 	(obj:0)
d12(4,93)                                           1 	(obj:0)
d12(4,96)                                           1 	(obj:0)
d12(4,99)                                           1 	(obj:0)
d12(4,102)                                          1 	(obj:0)
d12(4,105)                                          1 	(obj:0)
d12(4,108)                                          1 	(obj:0)
d12(4,111)                                          1 	(obj:0)
d12(4,114)                                          1 	(obj:0)
d12(4,117)                                          1 	(obj:0)
d12(4,120)                                          1 	(obj:0)
d21(2,4)                                            1 	(obj:0)
d21(3,13)                                           1 	(obj:0)
d21(3,14)                                           1 	(obj:0)
d21(3,15)                                           1 	(obj:0)
d21(3,16)                                           1 	(obj:0)
d21(3,17)                                           1 	(obj:0)
d21(3,19)                                           1 	(obj:0)
d21(3,22)                                           1 	(obj:0)
d21(3,23)                                           1 	(obj:0)
d21(3,25)                                           1 	(obj:0)
d21(3,31)                                           1 	(obj:0)
d21(4,40)                                           1 	(obj:0)
d21(4,41)                                           1 	(obj:0)
d21(4,42)                                           1 	(obj:0)
d21(4,43)                                           1 	(obj:0)
d21(4,44)                                           1 	(obj:0)
d21(4,45)                                           1 	(obj:0)
d21(4,46)                                           1 	(obj:0)
d21(4,47)                                           1 	(obj:0)
d21(4,49)                                           1 	(obj:0)
d21(4,50)                                           1 	(obj:0)
d21(4,51)                                           1 	(obj:0)
d21(4,52)                                           1 	(obj:0)
d21(4,53)                                           1 	(obj:0)
d21(4,55)                                           1 	(obj:0)
d21(4,58)                                           1 	(obj:0)
d21(4,59)                                           1 	(obj:0)
d21(4,61)                                           1 	(obj:0)
d21(4,67)                                           1 	(obj:0)
d21(4,68)                                           1 	(obj:0)
d21(4,69)                                           1 	(obj:0)
d21(4,70)                                           1 	(obj:0)
d21(4,71)                                           1 	(obj:0)
d21(4,73)                                           1 	(obj:0)
d21(4,76)                                           1 	(obj:0)
d21(4,77)                                           1 	(obj:0)
d21(4,79)                                           1 	(obj:0)
d21(4,85)                                           1 	(obj:0)
d21(4,94)                                           1 	(obj:0)
d21(4,95)                                           1 	(obj:0)
d21(4,97)                                           1 	(obj:0)
d21(4,103)                                          1 	(obj:0)
d22(4,120)                                          1 	(obj:0)
y2(4,102)                            908.649810701443 	(obj:0)
y2(4,105)                            908.649810701443 	(obj:0)
y2(4,108)                            908.649810701443 	(obj:0)
y2(4,111)                            908.649810701443 	(obj:0)
y2(4,114)                            908.649810701443 	(obj:0)
y2(4,117)                            908.649810701443 	(obj:0)
y2(4,120)                            908.649810701443 	(obj:0)
STE(1,1)                             3294.78267983393 	(obj:0)
STE(0,0)                                         4725 	(obj:0)
STE(1,2)                             4291.54868316722 	(obj:0)
STE(1,3)                             5210.21732016652 	(obj:0)
STE(2,4)                             1864.56535966725 	(obj:0)
STE(2,5)                             2861.33136300054 	(obj:0)
STE(2,6)                             3779.99999999984 	(obj:0)
STE(2,7)                             2861.33136300054 	(obj:0)
STE(2,8)                             3858.09736633383 	(obj:0)
STE(2,9)                             4776.76600333313 	(obj:0)
STE(2,10)                            3779.99999999984 	(obj:0)
STE(2,11)                            4776.76600333313 	(obj:0)
STE(2,12)                            5695.43464033243 	(obj:0)
STE(3,13)                             434.34803950104 	(obj:0)
STE(3,14)                            1431.11404283433 	(obj:0)
STE(3,15)                            2349.78267983363 	(obj:0)
STE(3,16)                            1431.11404283433 	(obj:0)
STE(3,17)                            2427.88004616762 	(obj:0)
STE(3,18)                            3346.54868316692 	(obj:0)
STE(3,19)                            2349.78267983363 	(obj:0)
STE(3,20)                            3346.54868316692 	(obj:0)
STE(3,21)                            4265.21732016622 	(obj:0)
STE(3,22)                            1431.11404283433 	(obj:0)
STE(3,23)                            2427.88004616762 	(obj:0)
STE(3,24)                            3346.54868316692 	(obj:0)
STE(3,25)                            2427.88004616762 	(obj:0)
STE(3,26)                            3424.64604950091 	(obj:0)
STE(3,27)                            4343.31468650021 	(obj:0)
STE(3,28)                            3346.54868316692 	(obj:0)
STE(3,29)                            4343.31468650021 	(obj:0)
STE(3,30)                            5261.98332349951 	(obj:0)
STE(3,31)                            2349.78267983363 	(obj:0)
STE(3,32)                            3346.54868316692 	(obj:0)
STE(3,33)                            4265.21732016622 	(obj:0)
STE(3,34)                            3346.54868316692 	(obj:0)
STE(3,35)                            4343.31468650021 	(obj:0)
STE(3,36)                            5261.98332349951 	(obj:0)
STE(3,37)                            4265.21732016622 	(obj:0)
STE(3,38)                            5261.98332349951 	(obj:0)
STE(3,39)                            6180.65196049881 	(obj:0)
STE(4,40)                           -995.869280665178 	(obj:0)
STE(4,41)                           0.896722668113419 	(obj:0)
STE(4,42)                            919.565359667411 	(obj:0)
STE(4,43)                           0.896722668113853 	(obj:0)
STE(4,44)                            997.662726001405 	(obj:0)
STE(4,45)                             1916.3313630007 	(obj:0)
STE(4,46)                            919.565359667411 	(obj:0)
STE(4,47)                             1916.3313630007 	(obj:0)
STE(4,48)                                        2835 	(obj:0)
STE(4,49)                           0.896722668114535 	(obj:0)
STE(4,50)                            997.662726001405 	(obj:0)
STE(4,51)                             1916.3313630007 	(obj:0)
STE(4,52)                            997.662726001406 	(obj:0)
STE(4,53)                             1994.4287293347 	(obj:0)
STE(4,54)                            2913.09736633399 	(obj:0)
STE(4,55)                             1916.3313630007 	(obj:0)
STE(4,56)                            2913.09736633399 	(obj:0)
STE(4,57)                            3831.76600333329 	(obj:0)
STE(4,58)                            919.565359667411 	(obj:0)
STE(4,59)                             1916.3313630007 	(obj:0)
STE(4,60)                                        2835 	(obj:0)
STE(4,61)                             1916.3313630007 	(obj:0)
STE(4,62)                            2913.09736633399 	(obj:0)
STE(4,63)                            3831.76600333329 	(obj:0)
STE(4,64)                                        2835 	(obj:0)
STE(4,65)                            3831.76600333329 	(obj:0)
STE(4,66)                            4750.43464033259 	(obj:0)
STE(4,67)                            0.89672266811435 	(obj:0)
STE(4,68)                            997.662726001405 	(obj:0)
STE(4,69)                             1916.3313630007 	(obj:0)
STE(4,70)                            997.662726001406 	(obj:0)
STE(4,71)                             1994.4287293347 	(obj:0)
STE(4,72)                            2913.09736633399 	(obj:0)
STE(4,73)                             1916.3313630007 	(obj:0)
STE(4,74)                            2913.09736633399 	(obj:0)
STE(4,75)                            3831.76600333329 	(obj:0)
STE(4,76)                            997.662726001405 	(obj:0)
STE(4,77)                             1994.4287293347 	(obj:0)
STE(4,78)                            2913.09736633399 	(obj:0)
STE(4,79)                             1994.4287293347 	(obj:0)
STE(4,80)                            2991.19473266799 	(obj:0)
STE(4,81)                            3909.86336966728 	(obj:0)
STE(4,82)                            2913.09736633399 	(obj:0)
STE(4,83)                            3909.86336966728 	(obj:0)
STE(4,84)                            4828.53200666658 	(obj:0)
STE(4,85)                             1916.3313630007 	(obj:0)
STE(4,86)                              2913.097366334 	(obj:0)
STE(4,87)                            3831.76600333329 	(obj:0)
STE(4,88)                            2913.09736633399 	(obj:0)
STE(4,89)                            3909.86336966729 	(obj:0)
STE(4,90)                            4828.53200666658 	(obj:0)
STE(4,91)                            3831.76600333329 	(obj:0)
STE(4,92)                            4828.53200666658 	(obj:0)
STE(4,93)                            5747.20064366588 	(obj:0)
STE(4,94)                            919.565359667411 	(obj:0)
STE(4,95)                             1916.3313630007 	(obj:0)
STE(4,96)                                        2835 	(obj:0)
STE(4,97)                             1916.3313630007 	(obj:0)
STE(4,98)                            2913.09736633399 	(obj:0)
STE(4,99)                            3831.76600333329 	(obj:0)
STE(4,100)                                       2835 	(obj:0)
STE(4,101)                           3831.76600333329 	(obj:0)
STE(4,102)                           4750.43464033259 	(obj:0)
STE(4,103)                            1916.3313630007 	(obj:0)
STE(4,104)                           2913.09736633399 	(obj:0)
STE(4,105)                           3831.76600333329 	(obj:0)
STE(4,106)                           2913.09736633399 	(obj:0)
STE(4,107)                           3909.86336966729 	(obj:0)
STE(4,108)                           4828.53200666658 	(obj:0)
STE(4,109)                           3831.76600333329 	(obj:0)
STE(4,110)                           4828.53200666658 	(obj:0)
STE(4,111)                           5747.20064366588 	(obj:0)
STE(4,112)                                       2835 	(obj:0)
STE(4,113)                           3831.76600333329 	(obj:0)
STE(4,114)                           4750.43464033259 	(obj:0)
STE(4,115)                           3831.76600333329 	(obj:0)
STE(4,116)                           4828.53200666658 	(obj:0)
STE(4,117)                           5747.20064366588 	(obj:0)
STE(4,118)                           4750.43464033259 	(obj:0)
STE(4,119)                           5747.20064366588 	(obj:0)
STE(4,120)                           6665.86928066518 	(obj:0)
y1(4,100)                            946.995588149595 	(obj:0)
y1(4,101)                            49.9061851496336 	(obj:0)
y1(4,103)                            946.995588149595 	(obj:0)
y1(4,104)                            49.9061851496337 	(obj:0)
y1(4,106)                            946.995588149595 	(obj:0)
y1(4,107)                            49.9061851496336 	(obj:0)
y1(4,109)                            946.995588149595 	(obj:0)
y1(4,110)                            49.9061851496338 	(obj:0)
y1(4,112)                            946.995588149595 	(obj:0)
y1(4,113)                             49.906185149634 	(obj:0)
y1(4,115)                            946.995588149595 	(obj:0)
y1(4,116)                            49.9061851496336 	(obj:0)
y1(4,118)                            946.995588149595 	(obj:0)
y1(4,119)                            49.9061851496335 	(obj:0)
AVE(3)                                3399.3204933139 	(obj:0)
AVE(4)                               3353.21046544222 	(obj:0)
y2(4,99)                             908.649810701443 	(obj:0)
WG(2)                                3326.45170866643 	(obj:10)
WG(3)                                 3399.3204933139 	(obj:10)
WG(4)                                3353.21046544222 	(obj:10)
BG(1)                                 3428.7746787239 	(obj:10)
BG(2)                                102.322970058113 	(obj:10)
BG(3)                                29.4541854101535 	(obj:10)
BG(4)                                75.5642132818419 	(obj:10)
WB(1)                                3134.60043707458 	(obj:0)
AVE(1)                               3134.60043707458 	(obj:0)
AVE(2)                               3326.45170866643 	(obj:0)
y1(1,1)                              946.995588149462 	(obj:0)
y1(1,2)                              49.9061851495004 	(obj:0)
y1(2,4)                              946.995588150015 	(obj:0)
y1(2,5)                              49.9061851500528 	(obj:0)
y1(2,7)                              946.995588150015 	(obj:0)
y1(2,8)                              49.9061851500528 	(obj:0)
y1(2,10)                             946.995588150015 	(obj:0)
y1(2,11)                             49.9061851500527 	(obj:0)
y1(3,13)                             946.995588149587 	(obj:0)
y1(3,14)                             49.9061851496254 	(obj:0)
y1(3,16)                             946.995588149587 	(obj:0)
y1(3,17)                             49.9061851496254 	(obj:0)
y1(3,19)                             946.995588149587 	(obj:0)
y1(3,20)                             49.9061851496255 	(obj:0)
y1(3,22)                             946.995588149587 	(obj:0)
y1(3,23)                             49.9061851496255 	(obj:0)
y1(3,25)                             946.995588149587 	(obj:0)
y1(3,26)                             49.9061851496256 	(obj:0)
y1(3,28)                             946.995588149587 	(obj:0)
y1(3,29)                             49.9061851496255 	(obj:0)
y1(3,31)                             946.995588149587 	(obj:0)
y1(3,32)                              49.906185149626 	(obj:0)
y1(3,34)                             946.995588149587 	(obj:0)
y1(3,35)                             49.9061851496253 	(obj:0)
y1(3,37)                             946.995588149587 	(obj:0)
y1(3,38)                             49.9061851496256 	(obj:0)
y1(4,40)                             946.995588149596 	(obj:0)
y1(4,41)                             49.9061851496338 	(obj:0)
y1(4,43)                             946.995588149595 	(obj:0)
y1(4,44)                             49.9061851496337 	(obj:0)
y1(4,46)                             946.995588149595 	(obj:0)
y1(4,47)                             49.9061851496341 	(obj:0)
y1(4,49)                             946.995588149596 	(obj:0)
y1(4,50)                             49.9061851496339 	(obj:0)
y1(4,52)                             946.995588149595 	(obj:0)
y1(4,53)                             49.9061851496338 	(obj:0)
y1(4,55)                             946.995588149595 	(obj:0)
y1(4,56)                             49.9061851496337 	(obj:0)
y1(4,58)                             946.995588149595 	(obj:0)
y1(4,59)                             49.9061851496341 	(obj:0)
y1(4,61)                             946.995588149595 	(obj:0)
y1(4,62)                             49.9061851496337 	(obj:0)
y1(4,64)                             946.995588149595 	(obj:0)
y1(4,65)                             49.9061851496333 	(obj:0)
y1(4,67)                             946.995588149596 	(obj:0)
y1(4,68)                             49.9061851496339 	(obj:0)
y1(4,70)                             946.995588149595 	(obj:0)
y1(4,71)                             49.9061851496338 	(obj:0)
y1(4,73)                             946.995588149595 	(obj:0)
y1(4,74)                             49.9061851496337 	(obj:0)
y1(4,76)                             946.995588149595 	(obj:0)
y1(4,77)                             49.9061851496338 	(obj:0)
y1(4,79)                             946.995588149595 	(obj:0)
y1(4,80)                             49.9061851496337 	(obj:0)
y1(4,82)                             946.995588149595 	(obj:0)
y1(4,83)                             49.9061851496336 	(obj:0)
y1(4,85)                             946.995588149595 	(obj:0)
y1(4,86)                             49.9061851496337 	(obj:0)
y1(4,88)                             946.995588149595 	(obj:0)
y1(4,89)                             49.9061851496337 	(obj:0)
y1(4,91)                             946.995588149595 	(obj:0)
y1(4,92)                             49.9061851496338 	(obj:0)
y1(4,94)                             946.995588149595 	(obj:0)
y1(4,95)                             49.9061851496337 	(obj:0)
y1(4,97)                             946.995588149595 	(obj:0)
y1(4,98)                             49.9061851496337 	(obj:0)
y2(1,3)                              908.649810701599 	(obj:0)
y2(2,6)                              908.649810700954 	(obj:0)
y2(2,9)                              908.649810700954 	(obj:0)
y2(2,12)                             908.649810700954 	(obj:0)
y2(3,15)                             908.649810701453 	(obj:0)
y2(3,18)                             908.649810701453 	(obj:0)
y2(3,21)                             908.649810701453 	(obj:0)
y2(3,24)                             908.649810701453 	(obj:0)
y2(3,27)                             908.649810701453 	(obj:0)
y2(3,30)                             908.649810701453 	(obj:0)
y2(3,33)                             908.649810701453 	(obj:0)
y2(3,36)                             908.649810701453 	(obj:0)
y2(3,39)                             908.649810701453 	(obj:0)
y2(4,42)                             908.649810701443 	(obj:0)
y2(4,45)                             908.649810701443 	(obj:0)
y2(4,48)                             908.649810701444 	(obj:0)
y2(4,51)                             908.649810701443 	(obj:0)
y2(4,54)                             908.649810701443 	(obj:0)
y2(4,57)                             908.649810701443 	(obj:0)
y2(4,60)                             908.649810701443 	(obj:0)
y2(4,63)                             908.649810701443 	(obj:0)
y2(4,66)                             908.649810701443 	(obj:0)
y2(4,69)                             908.649810701443 	(obj:0)
y2(4,72)                             908.649810701443 	(obj:0)
y2(4,75)                             908.649810701443 	(obj:0)
y2(4,78)                             908.649810701443 	(obj:0)
y2(4,81)                             908.649810701443 	(obj:0)
y2(4,84)                             908.649810701443 	(obj:0)
y2(4,87)                             908.649810701443 	(obj:0)
y2(4,90)                             908.649810701443 	(obj:0)
y2(4,93)                             908.649810701443 	(obj:0)
y2(4,96)                             908.649810701443 	(obj:0)
